NAME : eil101.out.tour
COMMENT : Tour for eil101.tsp (Length 830.542)
TYPE : TOUR
DIMENSION : 101
TOUR_SECTION
1
69
50
76
77
3
79
33
81
9
51
71
35
65
78
34
68
80
12
26
40
58
53
101
27
28
13
94
6
89
95
97
92
59
99
96
93
85
91
61
16
44
14
38
86
5
84
17
60
83
8
45
82
48
47
36
49
64
7
88
31
70
30
20
66
62
10
90
32
63
11
19
46
18
52
37
98
100
87
2
57
15
43
42
21
73
72
74
22
41
75
56
39
67
23
4
54
55
25
29
24
1
